sat
(
  (define-fun StorageProv6 () Int
    2000)
  (define-fun PriceProv6 () Int
    420)
  (define-fun C1_VM4 () Int
    1)
  (define-fun C1_VM1 () Int
    1)
  (define-fun VM7Type () Int
    316)
  (define-fun C1_VM3 () Int
    0)
  (define-fun MemProv3 () Int
    7500)
  (define-fun C3_VM4 () Int
    0)
  (define-fun ProcProv7 () Int
    4)
  (define-fun VM4Type () Int
    316)
  (define-fun C4_VM1 () Int
    0)
  (define-fun C2_VM2 () Int
    1)
  (define-fun ProcProv2 () Int
    4)
  (define-fun PriceProv2 () Int
    350)
  (define-fun C4_VM8 () Int
    0)
  (define-fun VM5Type () Int
    316)
  (define-fun C4_VM4 () Int
    0)
  (define-fun MemProv4 () Int
    15000)
  (define-fun C3_VM2 () Int
    0)
  (define-fun StorageProv1 () Int
    4000)
  (define-fun MemProv6 () Int
    15000)
  (define-fun MemProv2 () Int
    15000)
  (define-fun StorageProv3 () Int
    2000)
  (define-fun ProcProv5 () Int
    4)
  (define-fun MemProv1 () Int
    15000)
  (define-fun PriceProv7 () Int
    350)
  (define-fun C1_VM2 () Int
    1)
  (define-fun StorageProv8 () Int
    2000)
  (define-fun C5_VM8 () Int
    1)
  (define-fun C3_VM5 () Int
    0)
  (define-fun C3_VM3 () Int
    1)
  (define-fun ProcProv4 () Int
    4)
  (define-fun C3_VM7 () Int
    0)
  (define-fun C2_VM3 () Int
    0)
  (define-fun ProcProv1 () Int
    4)
  (define-fun C4_VM6 () Int
    0)
  (define-fun StorageProv5 () Int
    4000)
  (define-fun VM3Type () Int
    341)
  (define-fun VM8Type () Int
    278)
  (define-fun PriceProv4 () Int
    350)
  (define-fun C2_VM4 () Int
    1)
  (define-fun PriceProv8 () Int
    420)
  (define-fun C4_VM2 () Int
    0)
  (define-fun StorageProv2 () Int
    4000)
  (define-fun MemProv8 () Int
    15000)
  (define-fun C3_VM6 () Int
    0)
  (define-fun C4_VM5 () Int
    0)
  (define-fun StorageProv7 () Int
    4000)
  (define-fun MemProv7 () Int
    15000)
  (define-fun C5_VM6 () Int
    1)
  (define-fun ProcProv8 () Int
    8)
  (define-fun C2_VM8 () Int
    0)
  (define-fun C5_VM3 () Int
    0)
  (define-fun PriceProv1 () Int
    350)
  (define-fun C3_VM8 () Int
    0)
  (define-fun C4_VM3 () Int
    0)
  (define-fun VM6Type () Int
    278)
  (define-fun C2_VM1 () Int
    1)
  (define-fun PriceProv5 () Int
    350)
  (define-fun PriceProv3 () Int
    210)
  (define-fun VM2Type () Int
    316)
  (define-fun C4_VM7 () Int
    0)
  (define-fun MemProv5 () Int
    15000)
  (define-fun ProcProv3 () Int
    4)
  (define-fun C3_VM1 () Int
    0)
  (define-fun VM1Type () Int
    316)
  (define-fun C2_VM5 () Int
    1)
  (define-fun C5_VM2 () Int
    0)
  (define-fun C1_VM6 () Int
    1)
  (define-fun C5_VM1 () Int
    0)
  (define-fun C2_VM7 () Int
    1)
  (define-fun C5_VM4 () Int
    0)
  (define-fun C1_VM7 () Int
    1)
  (define-fun ProcProv6 () Int
    8)
  (define-fun C5_VM5 () Int
    0)
  (define-fun C1_VM5 () Int
    1)
  (define-fun StorageProv4 () Int
    4000)
  (define-fun C2_VM6 () Int
    0)
  (define-fun C1_VM8 () Int
    1)
  (define-fun C5_VM7 () Int
    0)
)
(objectives
 ( 3961)
 ((+ 0
   PriceProv1
   PriceProv2
   PriceProv3
   PriceProv4
   PriceProv5
   PriceProv6
   PriceProv7
   PriceProv8) 2800)
)
(:added-eqs                   17272886
 :arith-eq-adapter            101756534
 :arith-bound-propagations-lp 1049747
 :arith-conflicts             240
 :arith-diseq                 123421299
 :arith-fixed-eqs             252387
 :arith-lower                 144772316
 :arith-make-feasible         12761277
 :arith-max-columns           591
 :arith-max-rows              26
 :arith-upper                 109595712
 :binary-propagations         305256317
 :bv-bit2core                 1981650
 :bv-dynamic-diseqs           139400570
 :bv-dynamic-eqs              2
 :bv->core-eq                 4390
 :conflicts                   198221
 :decisions                   70478813
 :del-clause                  203712913
 :final-checks                7906
 :max-memory                  355.74
 :maxsat-cores                3912
 :memory                      323.06
 :minimized-lits              2052723
 :mk-bool-var                 92158754
 :mk-clause                   203717421
 :mk-clause-binary            31974
 :num-allocs                  366180346238928.00
 :num-checks                  13951
 :pb-conflicts                1006
 :pb-predicates               7
 :pb-propagations             243816
 :pb-resolves                 282
 :propagations                613436084
 :restarts                    584
 :rlimit-count                185909550
 :time                        841.23
 :total-time                  841.08)
